N = 30;
M = 72;
Edge_Start = [1, 1, 2, 2, 3, 3, 3, 4, 4, 5, 5, 5, 6, 6, 7, 7, 8, 8, 9, 9, 10, 10, 11, 11, 11, 12, 12, 12, 13, 13, 14, 14, 15, 15, 16, 16, 17, 17, 17, 18, 18, 18, 19, 19, 19, 20, 20, 20, 21, 21, 21, 22, 22, 22, 23, 23, 24, 24, 25, 25, 26, 26, 26, 27, 27, 28, 28, 28, 29, 29, 30, 30];
Edge_End = [2, 8, 1, 3, 2, 4, 10, 3, 5, 4, 6, 12, 5, 7, 6, 14, 1, 9, 8, 17, 3, 11, 10, 12, 19, 5, 11, 13, 12, 21, 7, 15, 14, 23, 17, 24, 9, 16, 18, 17, 19, 26, 11, 18, 20, 19, 21, 28, 13, 20, 22, 21, 23, 30, 15, 22, 16, 25, 24, 26, 18, 25, 27, 26, 28, 20, 27, 29, 28, 30, 22, 29];
L = [1, 1, 1, 1, 1, 1, 1, 1, 1, 1, 1, 1, 1, 1, 1, 1, 1, 1, 1, 1, 1, 1, 1, 1, 1, 1, 1, 1, 1, 1, 1, 1, 1, 1, 1, 1, 1, 1, 1, 1, 1, 1, 1, 1, 1, 1, 1, 1, 1, 1, 1, 1, 1, 1, 1, 1, 1, 1, 1, 1, 1, 1, 1, 1, 1, 1, 1, 1, 1, 1, 1, 1];
T = [1, 1, 1, 1, 1, 1, 1, 1, 1, 1, 1, 1, 1, 1, 1, 1, 1, 1, 1, 1, 1, 1, 1, 1, 1, 1, 1, 1, 1, 1, 1, 1, 1, 1, 1, 1, 1, 1, 1, 1, 1, 1, 1, 1, 1, 1, 1, 1, 1, 1, 1, 1, 1, 1, 1, 1, 1, 1, 1, 1, 1, 1, 1, 1, 1, 1, 1, 1, 1, 1, 1, 1];
Lower_Bound = [0, 1, 2, 3, 4, 5, 6, 1, 2, 3, 4, 5, 6, 7, 8, 4, 3, 4, 5, 6, 7, 8, 9, 5, 6, 5, 6, 7, 8, 9];
Upper_Bound = [0, 1, 2, 3, 4, 5, 6, 1, 2, 3, 4, 5, 6, 7, 8, 4, 3, 4, 5, 6, 7, 8, 9, 5, 6, 5, 6, 7, 8, 9];
Start = 1;
End = 30;
Time = 9;
